10 8
3 14 5 14 2 18 1 18 0 8 4 16 6 6 7 17
0 10 7 9 3 9 2 3 4 14 5 10 6 8 1 15
0 6 1 14 7 8 4 13 3 4 6 17 2 19 5 8
0 16 5 7 4 12 7 13 6 3 2 4 1 14 3 17
7 7 0 4 1 7 4 10 5 20 3 19 6 13 2 10
0 19 4 17 5 14 6 3 2 20 7 4 3 16 1 9
4 14 0 14 5 19 7 17 6 8 1 19 2 14 3 3
5 19 3 7 6 18 0 20 7 16 2 1 4 12 1 10
5 5 7 7 3 1 2 4 0 16 1 20 6 15 4 19
2 14 3 9 0 6 6 6 4 9 1 12 7 10 5 15
